unsat
(:conflicts            1
 :max-generation       1
 :max-memory           30.00
 :memory               23.40
 :mk-bool-var          5104
 :mk-clause            404
 :mk-clause-binary     1663
 :num-allocs           103124424
 :num-checks           1
 :quant-instantiations 570
 :rlimit-count         851220
 :time                 0.10)
